Normalized Data/p03_5_normalized_split0.vrp
NAME:p03_5_NORMALIZED_split
BEST_KNOWN: 0
COMMENT: 0
DIMENSION: 403
CAPACITY: 100
EDGE_WEIGHT_FORMAT: FUNCTION
EDGE_WEIGHT_TYPE: EXACT_2D
NODE_COORD_SECTION
1 0.00000 0.00000
2 7 -40
3 7 -40
4 7 -40
5 7 -40
6 7 -40
7 -5 -4
8 -5 -4
9 -5 -4
10 -5 -4
11 -5 -4
12 -5 -4
13 -5 -4
14 -27 3
15 -27 3
16 -27 3
17 -27 3
18 -27 3
19 48 -12
20 48 -12
21 48 -12
22 48 -12
23 48 -12
24 45 33
25 45 33
26 45 33
27 45 33
28 -6 23
29 -6 23
30 -6 23
31 -6 23
32 -6 23
33 -6 23
34 -6 23
35 3 50
36 3 50
37 3 50
38 3 50
39 -7 34
40 -7 34
41 -7 34
42 -7 34
43 -7 34
44 -38 45
45 -38 45
46 -38 45
47 -36 47
48 -36 47
49 39 -43
50 39 -43
51 39 -43
52 39 -43
53 -29 4
54 -29 4
55 -29 4
56 -29 4
57 -29 4
58 17 30
59 17 30
60 17 30
61 17 30
62 17 30
63 4 -21
64 4 -21
65 4 -21
66 4 -21
67 4 -21
68 4 -21
69 4 -21
70 28 -15
71 28 -15
72 28 -15
73 28 -15
74 -31 44
75 -31 44
76 -31 44
77 32 24
78 32 24
79 -4 -35
80 -4 -35
81 -4 -35
82 -4 -35
83 -28 -21
84 -28 -21
85 -28 -21
86 -28 -21
87 22 35
88 22 35
89 22 35
90 22 35
91 50 44
92 50 44
93 50 44
94 50 44
95 -20 -33
96 -20 -33
97 -20 -33
98 -20 -33
99 -20 -33
100 -20 -33
101 39 -27
102 39 -27
103 39 -27
104 -29 -12
105 -29 -12
106 -29 -12
107 -29 -12
108 -29 -12
109 -29 -12
110 -29 -12
111 -33 -41
112 -33 -41
113 -33 -41
114 -33 -41
115 -33 -41
116 27 -13
117 27 -13
118 27 -13
119 -34 0
120 -34 0
121 -34 0
122 -34 0
123 -34 0
124 -34 0
125 -34 0
126 -49 -45
127 -49 -45
128 -49 -45
129 -49 -45
130 8 22
131 8 22
132 8 22
133 8 22
134 8 22
135 -28 41
136 -28 41
137 49 -33
138 49 -33
139 0 -27
140 0 -27
141 0 -27
142 47 -44
143 47 -44
144 47 -44
145 47 -44
146 19 -32
147 19 -32
148 19 -32
149 19 -32
150 19 -32
151 -2 -18
152 -2 -18
153 -2 -18
154 -2 -18
155 -2 -18
156 -1 -31
157 -1 -31
158 -1 -31
159 -1 -31
160 -1 -31
161 -1 -31
162 16 -37
163 16 -37
164 16 -37
165 16 -37
166 16 -37
167 25 15
168 25 15
169 25 15
170 25 15
171 11 13
172 11 13
173 11 13
174 11 13
175 11 13
176 11 13
177 11 13
178 27 22
179 27 22
180 27 22
181 0 -11
182 0 -11
183 0 -11
184 0 -11
185 17 36
186 17 36
187 17 36
188 -42 39
189 -42 39
190 21 49
191 21 49
192 24 28
193 24 28
194 24 28
195 24 28
196 24 28
197 -47 -14
198 -47 -14
199 -47 -14
200 -47 -14
201 -10 32
202 -10 32
203 -10 32
204 -10 32
205 -9 18
206 -9 18
207 -9 18
208 -12 1
209 -12 1
210 -12 1
211 14 32
212 14 32
213 14 32
214 -39 2
215 -39 2
216 -39 2
217 -26 -24
218 -26 -24
219 -26 -24
220 -26 -24
221 20 -48
222 20 -48
223 20 -48
224 -32 15
225 -32 15
226 -32 15
227 -32 15
228 -32 15
229 -32 15
230 -4 25
231 -4 25
232 -4 25
233 -4 25
234 -4 25
235 -9 12
236 -9 12
237 -9 12
238 -3 -46
239 -3 -46
240 -3 -46
241 -29 27
242 -29 27
243 43 46
244 43 46
245 43 46
246 43 46
247 43 46
248 43 46
249 43 46
250 -46 41
251 -46 41
252 -46 41
253 -46 41
254 -46 41
255 -46 41
256 47 -15
257 47 -15
258 47 -15
259 47 -15
260 16 -31
261 16 -31
262 21 -38
263 21 -38
264 21 -38
265 -21 -39
266 -21 -39
267 -21 -39
268 24 28
269 24 28
270 9 -3
271 9 -3
272 9 -3
273 9 -3
274 9 -3
275 9 -3
276 -36 -43
277 -36 -43
278 -36 -43
279 32 40
280 32 40
281 32 40
282 32 40
283 32 40
284 32 40
285 -47 2
286 -47 2
287 16 -29
288 16 -29
289 16 -29
290 16 -29
291 -31 27
292 -31 27
293 -17 -9
294 35 -40
295 35 -40
296 44 48
297 44 48
298 44 48
299 44 48
300 44 48
301 -6 21
302 -6 21
303 -36 -26
304 -36 -26
305 -36 -26
306 -36 -26
307 -25 48
308 -25 48
309 -25 48
310 -25 48
311 -25 48
312 47 0
313 47 0
314 47 0
315 47 0
316 47 0
317 47 0
318 47 0
319 -5 -12
320 -5 -12
321 -5 -12
322 -5 -12
323 -5 -12
324 -5 -12
325 18 10
326 18 10
327 18 10
328 18 10
329 -16 14
330 -16 14
331 -16 14
332 -16 14
333 -16 14
334 33 -31
335 33 -31
336 33 -31
337 33 -31
338 33 -31
339 16 -22
340 16 -22
341 16 -22
342 16 -22
343 16 -22
344 -42 10
345 -42 10
346 16 -33
347 16 -33
348 16 -33
349 16 -33
350 -8 -49
351 -8 -49
352 -8 -49
353 33 -41
354 33 -41
355 33 -41
356 -50 -2
357 -50 -2
358 -50 -2
359 -50 -2
360 -50 -2
361 10 50
362 10 50
363 10 50
364 10 50
365 10 50
366 -11 -1
367 -11 -1
368 -11 -1
369 -11 -1
370 31 -40
371 18 33
372 18 33
373 18 33
374 18 33
375 18 33
376 18 33
377 -29 -36
378 -29 -36
379 -29 -36
380 -47 19
381 -47 19
382 -47 19
383 -47 19
384 -20 42
385 -20 42
386 -29 48
387 -29 48
388 -29 48
389 -21 47
390 -21 47
391 -21 47
392 -21 47
393 -25 -14
394 -25 -14
395 46 18
396 46 18
397 46 18
398 46 18
399 46 18
400 50 -9
401 50 -9
402 50 -9
403 50 -9
DEMAND_SECTION
1 0
2 20
3 20
4 5
5 1
6 1
7 20
8 20
9 5
10 1
11 1
12 1
13 1
14 20
15 10
16 5
17 1
18 1
19 20
20 10
21 1
22 1
23 1
24 10
25 5
26 1
27 1
28 20
29 20
30 5
31 1
32 1
33 1
34 1
35 20
36 10
37 1
38 1
39 20
40 20
41 1
42 1
43 1
44 10
45 5
46 1
47 10
48 5
49 20
50 5
51 1
52 1
53 20
54 20
55 1
56 1
57 1
58 20
59 20
60 5
61 1
62 1
63 20
64 20
65 5
66 1
67 1
68 1
69 1
70 10
71 1
72 1
73 1
74 20
75 20
76 5
77 20
78 10
79 20
80 20
81 1
82 1
83 20
84 1
85 1
86 1
87 10
88 5
89 1
90 1
91 20
92 20
93 5
94 1
95 20
96 5
97 1
98 1
99 1
100 1
101 20
102 1
103 1
104 20
105 20
106 5
107 1
108 1
109 1
110 1
111 20
112 20
113 5
114 1
115 1
116 20
117 20
118 1
119 20
120 20
121 5
122 1
123 1
124 1
125 1
126 20
127 10
128 1
129 1
130 20
131 20
132 1
133 1
134 1
135 20
136 20
137 20
138 5
139 10
140 5
141 1
142 10
143 5
144 1
145 1
146 20
147 20
148 1
149 1
150 1
151 20
152 20
153 1
154 1
155 1
156 20
157 10
158 1
159 1
160 1
161 1
162 20
163 1
164 1
165 1
166 1
167 20
168 20
169 1
170 1
171 20
172 20
173 5
174 1
175 1
176 1
177 1
178 20
179 20
180 1
181 20
182 10
183 5
184 1
185 20
186 20
187 1
188 10
189 5
190 20
191 1
192 10
193 1
194 1
195 1
196 1
197 20
198 10
199 1
200 1
201 20
202 20
203 1
204 1
205 10
206 1
207 1
208 20
209 10
210 5
211 20
212 1
213 1
214 20
215 5
216 1
217 20
218 1
219 1
220 1
221 20
222 10
223 5
224 10
225 5
226 1
227 1
228 1
229 1
230 20
231 20
232 1
233 1
234 1
235 20
236 10
237 5
238 20
239 1
240 1
241 20
242 20
243 20
244 20
245 5
246 1
247 1
248 1
249 1
250 20
251 10
252 1
253 1
254 1
255 1
256 10
257 5
258 1
259 1
260 20
261 10
262 20
263 20
264 5
265 20
266 20
267 5
268 20
269 20
270 20
271 10
272 1
273 1
274 1
275 1
276 20
277 20
278 5
279 20
280 10
281 5
282 1
283 1
284 1
285 20
286 20
287 20
288 10
289 1
290 1
291 20
292 1
293 20
294 10
295 5
296 20
297 20
298 5
299 1
300 1
301 20
302 5
303 20
304 5
305 1
306 1
307 20
308 5
309 1
310 1
311 1
312 20
313 20
314 5
315 1
316 1
317 1
318 1
319 20
320 5
321 1
322 1
323 1
324 1
325 20
326 20
327 1
328 1
329 20
330 1
331 1
332 1
333 1
334 20
335 10
336 5
337 1
338 1
339 20
340 5
341 1
342 1
343 1
344 20
345 5
346 20
347 1
348 1
349 1
350 20
351 20
352 5
353 20
354 10
355 5
356 20
357 20
358 1
359 1
360 1
361 10
362 5
363 1
364 1
365 1
366 20
367 20
368 5
369 1
370 20
371 20
372 10
373 5
374 1
375 1
376 1
377 20
378 10
379 1
380 10
381 1
382 1
383 1
384 20
385 5
386 20
387 5
388 1
389 10
390 5
391 1
392 1
393 20
394 10
395 20
396 10
397 1
398 1
399 1
400 20
401 5
402 1
403 1
DEPOT_SECTION
1
-1
EOF