Normalized Data/p03_5_normalized_split0.sol
402 -11 9 10 7 8 12 6 365 366 367 368 -14 52 54 53 56 55 121 118 119 120 123 -17 16 13 15 285 284 213 215 214 -26 23 24 25 91 92 93 90 280 278 282 279 -33 31 29 28 30 27 32 232 230 231 233 229 -39 38 41 42 40 202 201 203 200 301 -47 46 43 44 45 254 251 252 253 250 249 187 188 240 -59 57 58 60 61 371 370 133 131 132 130 -65 63 62 64 157 158 160 156 159 155 79 -67 66 68 139 140 238 237 239 350 349 351 78 80 81 -75 73 74 134 135 205 204 206 -77 76 268 267 193 192 191 194 195 -85 84 83 82 199 197 198 196 357 358 356 355 359 122 124 -86 87 89 88 185 186 184 211 212 210 129 -96 94 95 99 98 97 265 266 264 219 218 216 217 -100 102 101 137 136 144 142 141 143 49 48 51 50 337 335 336 -103 107 108 105 109 104 106 393 392 292 -116 117 257 255 258 256 21 18 19 20 22 399 401 400 402 -125 127 128 126 277 276 275 377 378 320 321 322 319 323 -138 1 3 4 2 5 220 221 222 164 165 -169 168 167 166 178 177 179 -172 170 176 175 174 173 171 325 324 327 326 -181 182 183 180 151 152 153 154 150 318 -209 207 208 331 330 329 332 328 235 236 234 -223 225 227 228 224 226 344 343 381 380 379 382 291 290 241 -244 245 248 246 242 247 243 299 297 295 298 296 283 281 -259 146 145 149 148 147 287 288 286 289 -260 261 262 263 161 162 163 346 348 347 345 -270 274 273 271 269 272 115 69 70 72 71 341 339 342 340 338 -300 34 37 35 36 360 362 364 363 361 189 190 375 374 373 372 -302 304 305 303 110 111 113 112 114 376 -311 314 316 312 317 315 313 397 398 395 396 394 -334 333 294 293 354 353 352 369 -384 383 388 391 389 390 310 309 307 306 308 386 387 385 0 





OBJ=
3147.121
BEST_KNOWN=
0.000